 &control
    calculation = 'carbon-diamond-bands'
    prefix      = 'carbon-diamond'
    outdir      = 'carbon-diamond-outdir',
    pseudo_dir  = '../PP'
 /
 &system
    ibrav     = 2, 
    celldm(1) = 6.515,
    nat       = 2, 
    ntyp      = 1,
    ecutwfc   = 18.0, 
    nbnd      = 8,
 /
 &electrons
    diagonalization='david'
 /
ATOMIC_SPECIES
 C  12.0107  C.rvv10-n-kjpaw_psl.1.0.0.UPF
ATOMIC_POSITIONS crystal
 C  0.000 0.000 0.000
 C  0.250 0.250 0.250
K_POINTS
===== INSERT HERE ======

