phonons of Si at Gamma point
 &inputph
  tr2_ph   = 5.0d-16,
  prefix   = 'silicon',
  epsil    = .true.,
  lraman   = .true.
  trans    = .true.,
  asr      = .true.
  amass(1) = 28.08,
  outdir   = 'calc',
  fildyn   = 'si.gamma',
 /
0.0 0.0 0.0
