 &input 
  fildyn='si.gamma', 
  asr='zero-dim' 
 /
